2	25
196	624	852	736	934	20	732	802	501	1000	502	950	739	369	778	413	510	644	871	809	534	447	591	356	319	
78	528	156	464	541	744	998	277	617	909	23	303	230	860	878	720	878	11	445	871	343	768	885	533	586	
5118	5118	
